##############################################################################
#                                                                            #
# C-Cl-F           # C2ClF                                         # 1501680 #
#                                                                            #
##############################################################################
#                                                                            #
#                           Pearson's Crystal Data                           #
#      Crystal Structure Database for Inorganic Compounds (on DVD)           #
#                              Release 2017/18                               #
#                  Editors: Pierre Villars and Karin Cenzual                 #
#                                                                            #
#   Copyright (c) ASM International & Material Phases Data System (MPDS),    #
# Switzerland & National Institute for Materials Science (NIMS), Japan, 2017 #
#                   All rights reserved. Version 2017.08                     #
#                                                                            #
#   This copy of Pearson's Crystal Data is licensed to:                      #
#   University of Alberta, Chemistry Department, 1-5 Installations License         #
#                                                                            #
##############################################################################

data_1501680
_audit_creation_date                     2017-12-05
_audit_creation_method
;
Pearson's Crystal Data browser
;
#_database_code_PCD                      1501680

# Entry summary

_chemical_formula_structural             'C~2~ Cl F'
_chemical_formula_sum                    'C2 Cl F'
_chemical_name_mineral                   ?
_chemical_compound_source                ?
_chemical_name_structure_type            C~2~ClF,hP24,176
_chemical_formula_weight                 78.5
_chemical_melting_point                  330

# Bibliographic data

_publ_section_title
'Structure of 1,3,5-Trichloro-2,4,6-trifluorobenzene'                         
_journal_coden_ASTM                      ACBCAR
_journal_name_full                       'Acta Crystallogr. B'
_journal_year                            1981
_journal_volume                          37
_journal_page_first                      1896
_journal_page_last                       1900
_journal_language                        English
loop_
 _publ_author_name
 _publ_author_address
'Chaplot S.L.'
;
Edinburgh University
Department of Physics
Edinburgh
United Kingdom
;
'McIntyre G.J.'
;
Edinburgh University
Department of Physics
Edinburgh
United Kingdom
;
'Mierzejewski A.'
;
Edinburgh University
Department of Physics
Edinburgh
United Kingdom
;
'Pawley G.S.'
;
Edinburgh University
Department of Physics
Edinburgh
United Kingdom
;

# Standardized crystallographic data

_cell_length_a                           8.541
_cell_length_b                           8.541
_cell_length_c                           6.282
_cell_angle_alpha                        90
_cell_angle_beta                         90
_cell_angle_gamma                        120
_cell_volume                             396.9
_cell_formula_units_Z                    6
_space_group_IT_number                   176
_space_group_name_H-M_alt                'P 63/m'
loop_
 _space_group_symop_id
 _space_group_symop_operation_xyz
 1 'x, y, z'
 2 '-x+y, -x, 1/2-z'
 3 '-x+y, -x, z'
 4 '-x, -y, -z'
 5 '-x, -y, 1/2+z'
 6 '-y, x-y, 1/2-z'
 7 '-y, x-y, z'
 8 'x, y, 1/2-z'
 9 'x-y, x, -z'
 10 'x-y, x, 1/2+z'
 11 'y, -x+y, -z'
 12 'y, -x+y, 1/2+z'
loop_
 _atom_type_symbol
 C
 Cl
 F
loop_
 _atom_site_label
 _atom_site_type_symbol
 _atom_site_symmetry_multiplicity
 _atom_site_Wyckoff_symbol
 _atom_site_fract_x
 _atom_site_fract_y
 _atom_site_fract_z
 _atom_site_occupancy
 C1 C 6 h 0.1446 0.525 0.25 1
 Cl Cl 6 h 0.2278 0.2621 0.25 1
 C2 C 6 h 0.2855 0.4843 0.25 1
 F F 6 h 0.4373 0.0195 0.25 1


_exptl_crystal_colour                    ?
_exptl_crystal_density_meas              ?
_exptl_crystal_density_diffrn            1.97
_cell_measurement_temperature            ?
_cell_measurement_radiation              'X-rays, Mo Ka'
_cell_measurement_reflns_used            25
_diffrn_ambient_temperature              ?
_diffrn_measurement_device               'automatic diffractometer'
_diffrn_measurement_device_type          'Enraf-Nonius CAD4'
_diffrn_radiation_type                   'X-rays, Mo Ka'
_diffrn_reflns_number                    ?
_exptl_absorpt_coefficient_mu            ?
_exptl_absorpt_correction_type           ?
_computing_structure_solution            'crystal chemical considerations'
_refine_ls_number_parameters             26
_refine_ls_number_reflns                 401
_refine_ls_R_factor_gt                   0.039
_refine_ls_wR_factor_gt                  0.070

# End of data set 1501680


